(set-logic HORN)
(set-info :source |
    Benchmark: C_VC
    Output by Princess (http://www.philipp.ruemmer.org/princess.shtml)
|)
(set-info :status sat)
(declare-heap Heap Addr HeapObject
 defObj
 ((HeapObject 0)) (
  (
   (O_Int (getInt Int))
   (O_UInt (getUInt Int))
   (O_Addr (getAddr Addr))
   (defObj)
  )
))
(declare-fun inv_main11 (Heap AddrRange AddrRange Int) Bool)
(declare-fun inv_main12 (Heap AddrRange AddrRange Int) Bool)
(declare-fun inv_main14 (Heap AddrRange AddrRange Int Int) Bool)
(declare-fun inv_main16 (Heap AddrRange AddrRange Int Int) Bool)
(declare-fun inv_main20 (Heap AddrRange AddrRange Int Int Int) Bool)
(declare-fun inv_main26 (Heap AddrRange AddrRange Int Int Int) Bool)
(declare-fun inv_main4 (Heap AddrRange AddrRange) Bool)
(assert (forall ((var0 Int) (var1 AddrRange) (var2 Int) (var3 Heap) (var4 Heap)) (or (not (and (= var4 emptyHeap) (and (= var3 (newBatchHeap (batchAlloc emptyHeap (O_Int var2) 100000))) (= var1 (newAddrRange (batchAlloc emptyHeap (O_Int var2) 100000)))))) (inv_main4 (newBatchHeap (batchAlloc emptyHeap (O_Int var0) 100000)) var1 (newAddrRange (batchAlloc emptyHeap (O_Int var0) 100000))))))
(assert (forall ((var0 Int) (var1 AddrRange) (var2 AddrRange) (var3 Int) (var4 Heap) (var5 Int) (var6 AddrRange) (var7 AddrRange) (var8 Heap)) (or (not (and (inv_main11 var8 var7 var6 var5) (and (and (is-O_Int (read var8 (nthAddrRange var7 var5))) (is-O_Int (read var8 (nthAddrRange var7 var5)))) (and (and (and (= var4 (write var8 (nthAddrRange var7 var5) (O_Int var3))) (= var2 var7)) (= var1 var6)) (= var0 var5))))) (inv_main12 var4 var2 var1 var0))))
(assert (forall ((var0 Int) (var1 Int) (var2 AddrRange) (var3 AddrRange) (var4 Heap)) (or (not (and (inv_main16 var4 var3 var2 var1 var0) (is-O_Int (read var4 (nthAddrRange var3 var1))))) (inv_main20 var4 var3 var2 var1 var0 (getInt (read var4 (nthAddrRange var3 var1)))))))
(assert (forall ((var0 Int) (var1 Int) (var2 Int) (var3 AddrRange) (var4 AddrRange) (var5 Heap)) (or (not (and (inv_main26 var5 var4 var3 var2 var1 var0) (and (<= 0 (+ (+ 100000 (* (- 1) (+ var0 1))) (- 1))) (and (is-O_Int (read var5 (nthAddrRange var4 var0))) (is-O_Int (read var5 (nthAddrRange var3 var0))))))) (inv_main26 var5 var4 var3 var2 var1 (+ var0 1)))))
(assert (forall ((var0 Int) (var1 Int) (var2 AddrRange) (var3 AddrRange) (var4 Heap)) (or (not (and (inv_main14 var4 var3 var2 var1 var0) (and (not (= var0 0)) (not (<= 0 (+ (+ 100000 (* (- 1) var1)) (- 1))))))) (inv_main26 var4 var3 var2 var1 var0 0))))
(assert (forall ((var0 Int) (var1 Int) (var2 Int) (var3 AddrRange) (var4 AddrRange) (var5 Heap)) (or (not (and (inv_main20 var5 var4 var3 var2 var1 var0) (and (is-O_Int (read var5 (nthAddrRange var3 var2))) (not (= var0 (getInt (read var5 (nthAddrRange var3 var2)))))))) (inv_main14 var5 var4 var3 (+ var2 1) 0))))
(assert (forall ((var0 Int) (var1 Int) (var2 Int) (var3 AddrRange) (var4 AddrRange) (var5 Heap)) (or (not (and (inv_main20 var5 var4 var3 var2 var1 var0) (and (is-O_Int (read var5 (nthAddrRange var3 var2))) (= var0 (getInt (read var5 (nthAddrRange var3 var2))))))) (inv_main14 var5 var4 var3 (+ var2 1) var1))))
(assert (forall ((var0 AddrRange) (var1 AddrRange) (var2 Int) (var3 Heap) (var4 Int) (var5 Int) (var6 AddrRange) (var7 AddrRange) (var8 Heap)) (or (not (and (inv_main12 var8 var7 var6 var5) (and (not (<= 0 (+ (+ 100000 (* (- 1) (+ var4 1))) (- 1)))) (and (and (is-O_Int (read var8 (nthAddrRange var6 var5))) (is-O_Int (read var8 (nthAddrRange var6 var5)))) (and (and (and (= var3 (write var8 (nthAddrRange var6 var5) (O_Int var2))) (= var1 var7)) (= var0 var6)) (= var4 var5)))))) (inv_main14 var3 var1 var0 0 1))))
(assert (forall ((var0 Int) (var1 Int) (var2 AddrRange) (var3 AddrRange) (var4 Heap)) (or (not (and (inv_main14 var4 var3 var2 var1 var0) (<= 0 (+ (+ 100000 (* (- 1) var1)) (- 1))))) (inv_main16 var4 var3 var2 var1 var0))))
(assert (forall ((var0 AddrRange) (var1 AddrRange) (var2 Heap)) (or (not (inv_main4 var2 var1 var0)) (inv_main11 var2 var1 var0 0))))
(assert (forall ((var0 AddrRange) (var1 AddrRange) (var2 Int) (var3 Heap) (var4 Int) (var5 Int) (var6 AddrRange) (var7 AddrRange) (var8 Heap)) (or (not (and (inv_main12 var8 var7 var6 var5) (and (<= 0 (+ (+ 100000 (* (- 1) (+ var4 1))) (- 1))) (and (and (is-O_Int (read var8 (nthAddrRange var6 var5))) (is-O_Int (read var8 (nthAddrRange var6 var5)))) (and (and (and (= var3 (write var8 (nthAddrRange var6 var5) (O_Int var2))) (= var1 var7)) (= var0 var6)) (= var4 var5)))))) (inv_main11 var3 var1 var0 (+ var4 1)))))
(assert (forall ((var0 Int) (var1 AddrRange) (var2 AddrRange) (var3 Heap)) (not (and (inv_main11 var3 var2 var1 var0) (not (is-O_Int (read var3 (nthAddrRange var2 var0))))))))
(assert (forall ((var0 Int) (var1 AddrRange) (var2 AddrRange) (var3 Heap)) (not (and (inv_main11 var3 var2 var1 var0) (and (is-O_Int (read var3 (nthAddrRange var2 var0))) (not (within var2 (nthAddrRange var2 var0))))))))
(assert (forall ((var0 Int) (var1 AddrRange) (var2 AddrRange) (var3 Heap)) (not (and (inv_main11 var3 var2 var1 var0) (and (is-O_Int (read var3 (nthAddrRange var2 var0))) (not (is-O_Int (read var3 (nthAddrRange var2 var0)))))))))
(assert (forall ((var0 Int) (var1 AddrRange) (var2 AddrRange) (var3 Heap)) (not (and (inv_main12 var3 var2 var1 var0) (not (is-O_Int (read var3 (nthAddrRange var1 var0))))))))
(assert (forall ((var0 Int) (var1 AddrRange) (var2 AddrRange) (var3 Heap)) (not (and (inv_main12 var3 var2 var1 var0) (and (is-O_Int (read var3 (nthAddrRange var1 var0))) (not (within var1 (nthAddrRange var1 var0))))))))
(assert (forall ((var0 Int) (var1 AddrRange) (var2 AddrRange) (var3 Heap)) (not (and (inv_main12 var3 var2 var1 var0) (and (is-O_Int (read var3 (nthAddrRange var1 var0))) (not (is-O_Int (read var3 (nthAddrRange var1 var0)))))))))
(assert (forall ((var0 Int) (var1 Int) (var2 AddrRange) (var3 AddrRange) (var4 Heap)) (not (and (inv_main16 var4 var3 var2 var1 var0) (not (is-O_Int (read var4 (nthAddrRange var3 var1))))))))
(assert (forall ((var0 Int) (var1 Int) (var2 AddrRange) (var3 AddrRange) (var4 Heap)) (not (and (inv_main16 var4 var3 var2 var1 var0) (and (is-O_Int (read var4 (nthAddrRange var3 var1))) (not (within var3 (nthAddrRange var3 var1))))))))
(assert (forall ((var0 Int) (var1 Int) (var2 Int) (var3 AddrRange) (var4 AddrRange) (var5 Heap)) (not (and (inv_main20 var5 var4 var3 var2 var1 var0) (not (is-O_Int (read var5 (nthAddrRange var3 var2))))))))
(assert (forall ((var0 Int) (var1 Int) (var2 Int) (var3 AddrRange) (var4 AddrRange) (var5 Heap)) (not (and (inv_main20 var5 var4 var3 var2 var1 var0) (and (is-O_Int (read var5 (nthAddrRange var3 var2))) (not (within var3 (nthAddrRange var3 var2))))))))
(assert (forall ((var0 Int) (var1 Int) (var2 Int) (var3 AddrRange) (var4 AddrRange) (var5 Heap)) (not (and (inv_main26 var5 var4 var3 var2 var1 var0) (not (is-O_Int (read var5 (nthAddrRange var4 var0))))))))
(assert (forall ((var0 Int) (var1 Int) (var2 Int) (var3 AddrRange) (var4 AddrRange) (var5 Heap)) (not (and (inv_main26 var5 var4 var3 var2 var1 var0) (not (within var4 (nthAddrRange var4 var0)))))))
(assert (forall ((var0 Int) (var1 Int) (var2 Int) (var3 AddrRange) (var4 AddrRange) (var5 Heap)) (not (and (inv_main26 var5 var4 var3 var2 var1 var0) (not (is-O_Int (read var5 (nthAddrRange var3 var0))))))))
(assert (forall ((var0 Int) (var1 Int) (var2 Int) (var3 AddrRange) (var4 AddrRange) (var5 Heap)) (not (and (inv_main26 var5 var4 var3 var2 var1 var0) (not (within var3 (nthAddrRange var3 var0)))))))
(assert (forall ((var0 Int) (var1 Int) (var2 Int) (var3 AddrRange) (var4 AddrRange) (var5 Heap)) (not (and (inv_main26 var5 var4 var3 var2 var1 var0) (not (is-O_Int (read var5 (nthAddrRange var4 var0))))))))
(assert (forall ((var0 Int) (var1 Int) (var2 Int) (var3 AddrRange) (var4 AddrRange) (var5 Heap)) (not (and (inv_main26 var5 var4 var3 var2 var1 var0) (and (is-O_Int (read var5 (nthAddrRange var4 var0))) (not (within var4 (nthAddrRange var4 var0))))))))
(assert (forall ((var0 Int) (var1 Int) (var2 Int) (var3 AddrRange) (var4 AddrRange) (var5 Heap)) (not (and (inv_main26 var5 var4 var3 var2 var1 var0) (and (is-O_Int (read var5 (nthAddrRange var4 var0))) (not (is-O_Int (read var5 (nthAddrRange var3 var0)))))))))
(assert (forall ((var0 Int) (var1 Int) (var2 Int) (var3 AddrRange) (var4 AddrRange) (var5 Heap)) (not (and (inv_main26 var5 var4 var3 var2 var1 var0) (and (and (is-O_Int (read var5 (nthAddrRange var4 var0))) (is-O_Int (read var5 (nthAddrRange var3 var0)))) (not (within var3 (nthAddrRange var3 var0))))))))
(assert (forall ((var0 Int) (var1 Int) (var2 Int) (var3 AddrRange) (var4 AddrRange) (var5 Heap)) (not (and (inv_main26 var5 var4 var3 var2 var1 var0) (and (and (is-O_Int (read var5 (nthAddrRange var4 var0))) (is-O_Int (read var5 (nthAddrRange var3 var0)))) (not (= (getInt (read var5 (nthAddrRange var4 var0))) (getInt (read var5 (nthAddrRange var3 var0))))))))))
(check-sat)
